32710.0
1 0 1 1 1 1 1 1 1 0 0 1 0 0 1 0 1 1 1 0 1 1 0 1 1 1 1 1 1 0 
18 6 21 27 2 6 21 27 18 28 4 28 20 3 28 18 3 20 27 0 18 16 5 24 23 18 27 14 4 2 6 26 4 16 27 6 20 8 24 16 18 8 6 4 8 26 3 21 14 14 24 16 24 16 8 6 11 8 18 25 4 0 7 8 3 11 5 14 28 25 18 6 6 8 23 23 20 23 8 16 23 0 26 25 4 20 6 5 27 7 28 6 25 25 2 3 11 6 0 28 28 21 25 18 4 0 4 24 27 3 14 4 27 6 11 8 28 7 17 8 26 11 17 6 26 16 2 11 26 17 28 24 25 20 23 8 3 3 28 14 11 27 11 11 25 5 24 21 27 25 24 17 23 0 8 11 2 16 3 3 3 27 23 24 5 27 5 4 3 21 5 20 28 14 26 2 0 20 4 20 5 21 2 6 11 8 28 23 0 21 2 21 6 4 7 6 7 21 23 6 